46
75
60	8
59	5
58	7
57	7
56	8
55	9
54	7
53	4
52	7
51	4
50	5
49	11
48	5
47	6
46	7
45	7
44	9
43	8
42	4
41	8
40	6
39	6
38	7
37	9
36	8
35	5
34	9
33	7
32	5
31	5
30	8
29	6
28	4
27	7
26	10
25	9
24	4
23	4
22	5
21	4
20	6
19	6
18	6
17	7
16	6
15	5
